NAME          SIMPLE_LP
ROWS
 N  OBJ
 L  CON1
 L  CON2
COLUMNS
    X1        OBJ                  3
    X1        CON1                 1
    X1        CON2                 2
    X2        OBJ                  2
    X2        CON1                 1
    X2        CON2                 1
RHS
    RHS1      CON1                 4
    RHS1      CON2                 6
BOUNDS
 LO BND1      X1                   0
 LO BND1      X2                   0
ENDATA